/* Objective function */
min: 1.08 x11 + 1.095 x12 + 1.11 x13 + 1.225 x14 + 100 x21 + 1.11 x22 + 1.125 x23 + 1.14 x24 + 100 x31 + 100 x32 + 1.1 x33 + 1.115 x34 + 100 X41 + 100 X42 + 100 X43 + 1.13 X44;

/* Constraints */
x11 + x12 + x13 + x14 + x15 = 25;
x21 + x22 + x23 + x24 + x25 = 35;
x31 + x32 + x33 + x34 + x35 = 30;
x41 + x42 + x43 + x44 + x45 = 10;
x11 + x21 + x31 + x41 = 10;
x12 + x22 + x32 + x42 = 15;
x13 + x23 + x33 + x43 = 25;
x14 + x24 + x34 + x44 = 20;
x15 + x25 + x35 + x45 = 30;